language Essence 1.3

letting blksize_delta be function(1 --> 5, 2 --> 6, 3 --> 5, 4 --> 5, 5 --> 5)
letting maxcars be function(1 --> 10, 2 --> 9, 3 --> 9, 4 --> 9, 5 --> 9)
letting n_cars be 234
letting n_classes be 110
letting n_options be 5
letting quantity be
        function(1 --> 2, 2 --> 13, 3 --> 2, 4 --> 2, 5 --> 5, 6 --> 2, 7 --> 2, 8 --> 2, 9 --> 2, 10 --> 2, 11 --> 2,
                 12 --> 2, 13 --> 2, 14 --> 2, 15 --> 2, 16 --> 2, 17 --> 2, 18 --> 2, 19 --> 2, 20 --> 2, 21 --> 2,
                 22 --> 2, 23 --> 2, 24 --> 2, 25 --> 2, 26 --> 2, 27 --> 2, 28 --> 2, 29 --> 2, 30 --> 2, 31 --> 2,
                 32 --> 2, 33 --> 2, 34 --> 2, 35 --> 2, 36 --> 2, 37 --> 2, 38 --> 2, 39 --> 2, 40 --> 2, 41 --> 2,
                 42 --> 2, 43 --> 2, 44 --> 2, 45 --> 2, 46 --> 2, 47 --> 2, 48 --> 2, 49 --> 2, 50 --> 2, 51 --> 2,
                 52 --> 2, 53 --> 2, 54 --> 2, 55 --> 2, 56 --> 2, 57 --> 2, 58 --> 2, 59 --> 2, 60 --> 2, 61 --> 2,
                 62 --> 2, 63 --> 2, 64 --> 2, 65 --> 2, 66 --> 2, 67 --> 2, 68 --> 2, 69 --> 2, 70 --> 2, 71 --> 2,
                 72 --> 2, 73 --> 2, 74 --> 2, 75 --> 2, 76 --> 2, 77 --> 2, 78 --> 2, 79 --> 2, 80 --> 2, 81 --> 2,
                 82 --> 2, 83 --> 2, 84 --> 2, 85 --> 2, 86 --> 2, 87 --> 2, 88 --> 2, 89 --> 2, 90 --> 2, 91 --> 2,
                 92 --> 2, 93 --> 2, 94 --> 2, 95 --> 2, 96 --> 2, 97 --> 2, 98 --> 2, 99 --> 2, 100 --> 2, 101 --> 2,
                 102 --> 2, 103 --> 2, 104 --> 2, 105 --> 2, 106 --> 2, 107 --> 2, 108 --> 2, 109 --> 2, 110 --> 2)
letting usage be
        relation((1, 2), (1, 3), (1, 5), (2, 2), (3, 1), (3, 2), (3, 3), (3, 5), (4, 1), (4, 4), (4, 5), (5, 1), (5, 4),
                 (6, 2), (7, 1), (7, 2), (7, 3), (8, 2), (8, 4), (9, 1), (9, 2), (9, 4), (9, 5), (10, 1), (10, 2),
                 (11, 4), (12, 2), (12, 3), (12, 4), (12, 5), (13, 2), (14, 1), (14, 3), (14, 5), (15, 1), (15, 3),
                 (15, 5), (16, 1), (16, 4), (16, 5), (17, 3), (17, 5), (18, 1), (18, 2), (19, 2), (20, 2), (21, 1),
                 (21, 4), (21, 5), (22, 2), (22, 5), (23, 1), (23, 2), (23, 4), (23, 5), (24, 1), (24, 2), (24, 3),
                 (24, 5), (25, 2), (25, 3), (26, 1), (27, 1), (27, 3), (28, 1), (28, 2), (28, 3), (29, 1), (29, 5),
                 (30, 1), (30, 2), (30, 3), (31, 1), (31, 5), (32, 2), (33, 1), (33, 2), (33, 3), (34, 3), (34, 5),
                 (35, 1), (35, 2), (35, 3), (35, 5), (36, 2), (36, 4), (36, 5), (37, 2), (37, 3), (37, 4), (38, 1),
                 (38, 3), (38, 5), (39, 4), (40, 2), (40, 3), (40, 5), (41, 1), (41, 2), (41, 5), (42, 1), (42, 4),
                 (42, 5), (43, 5), (44, 1), (44, 4), (44, 5), (45, 1), (45, 2), (45, 3), (45, 5), (46, 3), (47, 1),
                 (47, 3), (47, 4), (48, 2), (48, 4), (49, 2), (50, 1), (50, 4), (50, 5), (51, 1), (51, 3), (52, 3),
                 (52, 4), (53, 2), (53, 3), (54, 4), (55, 1), (55, 5), (56, 1), (56, 2), (56, 3), (57, 2), (57, 5),
                 (58, 1), (58, 4), (58, 5), (59, 2), (59, 4), (59, 5), (60, 3), (60, 4), (61, 3), (61, 5), (62, 2),
                 (63, 1), (63, 4), (63, 5), (64, 1), (64, 2), (64, 4), (65, 1), (65, 2), (65, 4), (66, 2), (66, 4),
                 (67, 2), (67, 4), (67, 5), (68, 1), (68, 2), (68, 3), (68, 4), (69, 5), (70, 1), (70, 2), (70, 4),
                 (71, 1), (71, 2), (71, 3), (71, 5), (72, 1), (72, 3), (73, 2), (73, 5), (74, 3), (74, 5), (75, 3),
                 (75, 4), (76, 1), (76, 3), (77, 1), (77, 2), (77, 4), (78, 2), (78, 3), (78, 4), (79, 2), (79, 4),
                 (79, 5), (80, 1), (80, 4), (81, 3), (81, 5), (82, 2), (83, 1), (83, 2), (83, 5), (84, 3), (84, 4),
                 (85, 2), (85, 4), (86, 1), (86, 5), (87, 1), (87, 5), (88, 3), (88, 4), (88, 5), (89, 1), (89, 4),
                 (90, 1), (90, 4), (90, 5), (91, 4), (91, 5), (92, 2), (93, 1), (93, 3), (93, 5), (94, 4), (95, 1),
                 (95, 4), (96, 4), (97, 2), (98, 1), (98, 3), (98, 4), (99, 1), (99, 5), (100, 3), (101, 2), (101, 5),
                 (102, 1), (102, 2), (102, 3), (102, 5), (103, 2), (103, 4), (104, 2), (105, 1), (105, 2), (105, 3),
                 (105, 4), (106, 2), (107, 2), (107, 4), (108, 2), (108, 3), (109, 2), (109, 3), (109, 5), (110, 2),
                 (110, 5))
$ Visualisation for usage
$   1   2
$   1   3
$   1   5
$   2   2
$   3   1
$   3   2
$   3   3
$   3   5
$   4   1
$   4   4
$   4   5
$   5   1
$   5   4
$   6   2
$   7   1
$   7   2
$   7   3
$   8   2
$   8   4
$   9   1
$   9   2
$   9   4
$   9   5
$  10   1
$  10   2
$  11   4
$  12   2
$  12   3
$  12   4
$  12   5
$  13   2
$  14   1
$  14   3
$  14   5
$  15   1
$  15   3
$  15   5
$  16   1
$  16   4
$  16   5
$  17   3
$  17   5
$  18   1
$  18   2
$  19   2
$  20   2
$  21   1
$  21   4
$  21   5
$  22   2
$  22   5
$  23   1
$  23   2
$  23   4
$  23   5
$  24   1
$  24   2
$  24   3
$  24   5
$  25   2
$  25   3
$  26   1
$  27   1
$  27   3
$  28   1
$  28   2
$  28   3
$  29   1
$  29   5
$  30   1
$  30   2
$  30   3
$  31   1
$  31   5
$  32   2
$  33   1
$  33   2
$  33   3
$  34   3
$  34   5
$  35   1
$  35   2
$  35   3
$  35   5
$  36   2
$  36   4
$  36   5
$  37   2
$  37   3
$  37   4
$  38   1
$  38   3
$  38   5
$  39   4
$  40   2
$  40   3
$  40   5
$  41   1
$  41   2
$  41   5
$  42   1
$  42   4
$  42   5
$  43   5
$  44   1
$  44   4
$  44   5
$  45   1
$  45   2
$  45   3
$  45   5
$  46   3
$  47   1
$  47   3
$  47   4
$  48   2
$  48   4
$  49   2
$  50   1
$  50   4
$  50   5
$  51   1
$  51   3
$  52   3
$  52   4
$  53   2
$  53   3
$  54   4
$  55   1
$  55   5
$  56   1
$  56   2
$  56   3
$  57   2
$  57   5
$  58   1
$  58   4
$  58   5
$  59   2
$  59   4
$  59   5
$  60   3
$  60   4
$  61   3
$  61   5
$  62   2
$  63   1
$  63   4
$  63   5
$  64   1
$  64   2
$  64   4
$  65   1
$  65   2
$  65   4
$  66   2
$  66   4
$  67   2
$  67   4
$  67   5
$  68   1
$  68   2
$  68   3
$  68   4
$  69   5
$  70   1
$  70   2
$  70   4
$  71   1
$  71   2
$  71   3
$  71   5
$  72   1
$  72   3
$  73   2
$  73   5
$  74   3
$  74   5
$  75   3
$  75   4
$  76   1
$  76   3
$  77   1
$  77   2
$  77   4
$  78   2
$  78   3
$  78   4
$  79   2
$  79   4
$  79   5
$  80   1
$  80   4
$  81   3
$  81   5
$  82   2
$  83   1
$  83   2
$  83   5
$  84   3
$  84   4
$  85   2
$  85   4
$  86   1
$  86   5
$  87   1
$  87   5
$  88   3
$  88   4
$  88   5
$  89   1
$  89   4
$  90   1
$  90   4
$  90   5
$  91   4
$  91   5
$  92   2
$  93   1
$  93   3
$  93   5
$  94   4
$  95   1
$  95   4
$  96   4
$  97   2
$  98   1
$  98   3
$  98   4
$  99   1
$  99   5
$ 100   3
$ 101   2
$ 101   5
$ 102   1
$ 102   2
$ 102   3
$ 102   5
$ 103   2
$ 103   4
$ 104   2
$ 105   1
$ 105   2
$ 105   3
$ 105   4
$ 106   2
$ 107   2
$ 107   4
$ 108   2
$ 108   3
$ 109   2
$ 109   3
$ 109   5
$ 110   2
$ 110   5

